\ Equation counts
\     Total        E        G        L        N        X        C        B
\	0	0	0	0
\
\ Variable counts
\                  x        b        i      s1s      s2s       sc       si
\     Total     cont   binary  integer     sos1     sos2    scont     sint
\	40	40

\ Nonzero counts
\     Total    const       NL      DLL
\
\
Minimize
 obj: [ + 18.0 x_1 * x_1 - 12.0 x_1 * x_2 - 11.5 x_1 * x_3 - 24.0 x_1 * x_5 - 8.0 x_1 * x_9 + 5.0 x_1 * x_10 + 13.0 x_1 * x_11 + 16.0 x_1 * x_12 - 1.0 x_1 * x_13 - 19.5 x_1 * x_15 + 12.5 x_1 * x_16 + 7.0 x_1 * x_17 - 23.5 x_1 * x_18 + 9.5 x_1 * x_19 + 24.5 x_1 * x_20 - 11.5 x_1 * x_21 + 3.5 x_1 * x_22 + 6.5 x_1 * x_23 - 5.5 x_1 * x_24 - 18.0 x_1 * x_25 - 13.0 x_1 * x_26 + 10.5 x_1 * x_27 - 20.5 x_1 * x_29 - 22.0 x_1 * x_30 + 6.5 x_1 * x_31 + 13.0 x_1 * x_32 - 6.5 x_1 * x_33 + 5.5 x_1 * x_36 - 22.5 x_1 * x_37 + 10.0 x_1 * x_38 + 24.5 x_1 * x_39 + 4.0 x_1 * x_40 - 12.0 x_2 * x_1 + 21.0 x_2 * x_2 + 11.0 x_2 * x_3 - 22.0 x_2 * x_4 + 13.0 x_2 * x_5 - 13.0 x_2 * x_7 + 19.0 x_2 * x_8 + 16.0 x_2 * x_10 + 12.0 x_2 * x_11 - 19.5 x_2 * x_12 + 19.5 x_2 * x_13 + 7.0 x_2 * x_14 - 17.5 x_2 * x_15 - 20.0 x_2 * x_17 - 15.5 x_2 * x_18 - 10.0 x_2 * x_20 - 5.5 x_2 * x_22 + 20.0 x_2 * x_23 + 4.0 x_2 * x_24 + 0.5 x_2 * x_25 - 7.0 x_2 * x_26 - 3.5 x_2 * x_27 - 2.5 x_2 * x_28 + 12.5 x_2 * x_29 + 19.0 x_2 * x_30 + 12.5 x_2 * x_31 - 22.0 x_2 * x_32 + 13.5 x_2 * x_34 + 22.5 x_2 * x_35 + 17.0 x_2 * x_37 + 17.5 x_2 * x_40 - 11.5 x_3 * x_1 + 11.0 x_3 * x_2 + 3.0 x_3 * x_3 + 19.0 x_3 * x_4 + 3.5 x_3 * x_5 + 20.0 x_3 * x_6 + 4.5 x_3 * x_7 - 16.0 x_3 * x_9 + 9.5 x_3 * x_10 + 20.5 x_3 * x_12 + 7.5 x_3 * x_13 - 8.5 x_3 * x_14 - 21.5 x_3 * x_15 + 23.0 x_3 * x_16 + 12.5 x_3 * x_17 - 11.0 x_3 * x_18 + 6.0 x_3 * x_19 - 17.5 x_3 * x_20 - 17.5 x_3 * x_21 - 13.0 x_3 * x_22 - 21.5 x_3 * x_23 + 4.0 x_3 * x_24 + 15.5 x_3 * x_25 - 16.5 x_3 * x_27 - 7.5 x_3 * x_29 - 4.0 x_3 * x_30 + 1.0 x_3 * x_31 - 6.0 x_3 * x_33 + 17.0 x_3 * x_34 + 1.0 x_3 * x_35 - 6.5 x_3 * x_37 - 17.5 x_3 * x_38 + 2.5 x_3 * x_39 - 1.5 x_3 * x_40 - 22.0 x_4 * x_2 + 19.0 x_4 * x_3 - 11.0 x_4 * x_4 + 22.0 x_4 * x_5 + 2.5 x_4 * x_6 + 4.0 x_4 * x_7 + 7.5 x_4 * x_8 + 15.0 x_4 * x_9 + 18.5 x_4 * x_10 + 15.5 x_4 * x_11 + 14.5 x_4 * x_12 + 17.5 x_4 * x_13 + 24.5 x_4 * x_14 + 13.0 x_4 * x_15 - 15.0 x_4 * x_16 - 9.5 x_4 * x_17 + 24.5 x_4 * x_19 - 20.5 x_4 * x_20 - 19.0 x_4 * x_21 - 8.0 x_4 * x_23 + 3.0 x_4 * x_24 + 0.5 x_4 * x_25 - 3.5 x_4 * x_26 - 5.0 x_4 * x_27 + 14.5 x_4 * x_28 - 16.0 x_4 * x_29 - 1.0 x_4 * x_30 - 7.5 x_4 * x_31 - 10.0 x_4 * x_33 + 7.5 x_4 * x_34 + 17.0 x_4 * x_35 - 5.5 x_4 * x_36 + 2.0 x_4 * x_37 + 6.5 x_4 * x_39 + 10.0 x_4 * x_40 - 24.0 x_5 * x_1 + 13.0 x_5 * x_2 + 3.5 x_5 * x_3 + 22.0 x_5 * x_4 + 21.5 x_5 * x_5 - 22.5 x_5 * x_7 + 3.0 x_5 * x_8 + 6.0 x_5 * x_9 - 6.0 x_5 * x_12 - 22.5 x_5 * x_15 - 18.5 x_5 * x_16 - 7.0 x_5 * x_17 - 7.5 x_5 * x_18 - 20.0 x_5 * x_19 + 8.5 x_5 * x_20 + 23.5 x_5 * x_22 - 19.0 x_5 * x_23 - 20.5 x_5 * x_24 + 13.5 x_5 * x_25 + 8.5 x_5 * x_26 + 6.5 x_5 * x_27 + 7.5 x_5 * x_28 - 18.5 x_5 * x_30 + 10.0 x_5 * x_31 + 0.5 x_5 * x_36 - 24.0 x_5 * x_37 + 7.0 x_5 * x_38 + 22.5 x_5 * x_39 - 17.5 x_5 * x_40 + 20.0 x_6 * x_3 + 2.5 x_6 * x_4 - 19.0 x_6 * x_6 + 21.0 x_6 * x_10 - 19.0 x_6 * x_14 - 11.0 x_6 * x_15 + 17.5 x_6 * x_16 - 1.5 x_6 * x_17 + 22.5 x_6 * x_18 + 8.5 x_6 * x_20 + 23.5 x_6 * x_21 - 5.5 x_6 * x_22 + 8.5 x_6 * x_23 + 14.0 x_6 * x_25 - 8.0 x_6 * x_26 - 21.0 x_6 * x_27 + 1.0 x_6 * x_28 + 12.0 x_6 * x_29 + 21.5 x_6 * x_30 - 4.0 x_6 * x_31 + 17.5 x_6 * x_32 - 16.5 x_6 * x_33 + 0.5 x_6 * x_34 - 22.5 x_6 * x_35 + 11.0 x_6 * x_37 + 4.5 x_6 * x_38 + 24.0 x_6 * x_39 - 13.0 x_7 * x_2 + 4.5 x_7 * x_3 + 4.0 x_7 * x_4 - 22.5 x_7 * x_5 + 17.0 x_7 * x_7 - 13.5 x_7 * x_8 + 5.5 x_7 * x_9 - 17.0 x_7 * x_10 + 11.0 x_7 * x_12 + 20.5 x_7 * x_13 - 20.5 x_7 * x_15 - 5.0 x_7 * x_17 - 5.0 x_7 * x_19 + 7.0 x_7 * x_20 + 16.5 x_7 * x_21 - 17.0 x_7 * x_22 + 1.5 x_7 * x_23 - 8.5 x_7 * x_24 + 10.5 x_7 * x_26 + 24.0 x_7 * x_27 - 22.0 x_7 * x_28 - 12.0 x_7 * x_29 + 5.0 x_7 * x_30 + 10.0 x_7 * x_31 - 11.0 x_7 * x_32 + 14.0 x_7 * x_33 - 11.5 x_7 * x_34 + 4.5 x_7 * x_35 - 19.5 x_7 * x_38 + 18.5 x_7 * x_39 + 19.0 x_8 * x_2 + 7.5 x_8 * x_4 + 3.0 x_8 * x_5 - 13.5 x_8 * x_7 - 1.5 x_8 * x_8 + 1.5 x_8 * x_10 + 9.0 x_8 * x_11 - 14.5 x_8 * x_12 - 5.0 x_8 * x_14 + 14.5 x_8 * x_16 - 17.0 x_8 * x_19 + 15.5 x_8 * x_20 + 18.5 x_8 * x_21 + 24.5 x_8 * x_22 - 5.5 x_8 * x_23 - 6.0 x_8 * x_24 - 4.0 x_8 * x_25 - 22.0 x_8 * x_26 + 22.0 x_8 * x_27 + 13.5 x_8 * x_28 - 5.5 x_8 * x_31 + 1.0 x_8 * x_32 - 24.5 x_8 * x_33 - 4.5 x_8 * x_34 - 19.0 x_8 * x_36 + 5.0 x_8 * x_37 + 18.5 x_8 * x_38 - 12.5 x_8 * x_39 - 20.5 x_8 * x_40 - 8.0 x_9 * x_1 - 16.0 x_9 * x_3 + 15.0 x_9 * x_4 + 6.0 x_9 * x_5 + 5.5 x_9 * x_7 - 4.0 x_9 * x_9 + 0.5 x_9 * x_10 + 20.0 x_9 * x_11 - 9.0 x_9 * x_12 + 10.5 x_9 * x_15 - 14.0 x_9 * x_17 - 0.5 x_9 * x_19 + 7.0 x_9 * x_20 - 4.5 x_9 * x_21 - 22.0 x_9 * x_22 + 8.5 x_9 * x_23 + 3.0 x_9 * x_24 + 10.0 x_9 * x_26 - 19.0 x_9 * x_27 + 19.0 x_9 * x_28 + 12.0 x_9 * x_29 - 2.5 x_9 * x_30 - 11.0 x_9 * x_31 + 23.5 x_9 * x_32 - 23.5 x_9 * x_33 + 2.5 x_9 * x_34 - 8.5 x_9 * x_35 - 24.0 x_9 * x_36 - 20.0 x_9 * x_38 - 19.0 x_9 * x_39 - 3.0 x_9 * x_40 + 5.0 x_10 * x_1 + 16.0 x_10 * x_2 + 9.5 x_10 * x_3 + 18.5 x_10 * x_4 + 21.0 x_10 * x_6 - 17.0 x_10 * x_7 + 1.5 x_10 * x_8 + 0.5 x_10 * x_9 - 21.5 x_10 * x_10 + 8.0 x_10 * x_11 - 3.0 x_10 * x_12 + 6.5 x_10 * x_13 - 1.0 x_10 * x_14 + 15.5 x_10 * x_15 + 0.5 x_10 * x_16 - 8.0 x_10 * x_19 + 3.5 x_10 * x_20 - 14.5 x_10 * x_22 + 19.5 x_10 * x_23 - 24.5 x_10 * x_24 - 18.0 x_10 * x_25 + 18.5 x_10 * x_26 + 7.0 x_10 * x_27 - 1.0 x_10 * x_28 + 20.0 x_10 * x_30 - 7.5 x_10 * x_31 - 22.5 x_10 * x_32 - 24.5 x_10 * x_33 - 20.0 x_10 * x_34 - 6.0 x_10 * x_36 + 8.0 x_10 * x_37 + 4.0 x_10 * x_38 + 5.0 x_10 * x_39 + 10.0 x_10 * x_40 + 13.0 x_11 * x_1 + 12.0 x_11 * x_2 + 15.5 x_11 * x_4 + 9.0 x_11 * x_8 + 20.0 x_11 * x_9 + 8.0 x_11 * x_10 - 22.5 x_11 * x_11 - 24.5 x_11 * x_13 - 9.5 x_11 * x_15 - 8.0 x_11 * x_16 + 17.0 x_11 * x_17 + 3.0 x_11 * x_18 - 20.0 x_11 * x_19 + 5.5 x_11 * x_20 - 15.0 x_11 * x_21 + 23.5 x_11 * x_22 + 8.5 x_11 * x_24 + 8.5 x_11 * x_25 + 21.5 x_11 * x_26 - 13.5 x_11 * x_27 - 17.5 x_11 * x_28 + 2.0 x_11 * x_29 + 19.0 x_11 * x_31 + 2.5 x_11 * x_32 + 8.0 x_11 * x_33 - 2.0 x_11 * x_34 - 22.5 x_11 * x_35 - 17.5 x_11 * x_36 + 1.5 x_11 * x_37 + 17.0 x_11 * x_38 - 10.5 x_11 * x_39 + 8.0 x_11 * x_40 + 16.0 x_12 * x_1 - 19.5 x_12 * x_2 + 20.5 x_12 * x_3 + 14.5 x_12 * x_4 - 6.0 x_12 * x_5 + 11.0 x_12 * x_7 - 14.5 x_12 * x_8 - 9.0 x_12 * x_9 - 3.0 x_12 * x_10 - 21.0 x_12 * x_12 + 12.5 x_12 * x_14 - 3.5 x_12 * x_15 + 17.5 x_12 * x_16 - 20.0 x_12 * x_17 + 20.0 x_12 * x_18 - 18.5 x_12 * x_19 + 21.5 x_12 * x_20 + 21.5 x_12 * x_22 - 13.0 x_12 * x_23 - 17.0 x_12 * x_24 + 8.5 x_12 * x_25 - 3.0 x_12 * x_27 + 8.5 x_12 * x_28 + 13.5 x_12 * x_30 + 3.0 x_12 * x_32 + 20.0 x_12 * x_33 + 22.5 x_12 * x_34 + 21.0 x_12 * x_36 + 24.5 x_12 * x_38 + 11.5 x_12 * x_39 + 21.0 x_12 * x_40 - 1.0 x_13 * x_1 + 19.5 x_13 * x_2 + 7.5 x_13 * x_3 + 17.5 x_13 * x_4 + 20.5 x_13 * x_7 + 6.5 x_13 * x_10 - 24.5 x_13 * x_11 - 14.0 x_13 * x_13 + 9.5 x_13 * x_14 + 15.0 x_13 * x_16 - 16.0 x_13 * x_18 - 20.5 x_13 * x_20 + 1.5 x_13 * x_21 - 18.5 x_13 * x_22 - 3.5 x_13 * x_24 + 9.5 x_13 * x_26 - 7.0 x_13 * x_27 + 6.5 x_13 * x_28 + 21.0 x_13 * x_29 - 11.0 x_13 * x_30 - 16.5 x_13 * x_31 + 8.0 x_13 * x_32 + 9.5 x_13 * x_33 + 16.5 x_13 * x_34 - 4.0 x_13 * x_35 - 3.0 x_13 * x_36 - 7.5 x_13 * x_37 + 5.0 x_13 * x_38 - 5.0 x_13 * x_39 + 7.0 x_14 * x_2 - 8.5 x_14 * x_3 + 24.5 x_14 * x_4 - 19.0 x_14 * x_6 - 5.0 x_14 * x_8 - 1.0 x_14 * x_10 + 12.5 x_14 * x_12 + 9.5 x_14 * x_13 + 4.5 x_14 * x_14 - 13.5 x_14 * x_15 + 16.0 x_14 * x_17 + 19.5 x_14 * x_18 + 16.5 x_14 * x_20 + 17.5 x_14 * x_21 + 13.0 x_14 * x_22 - 10.0 x_14 * x_24 + 1.5 x_14 * x_25 - 13.0 x_14 * x_26 + 11.0 x_14 * x_30 - 18.0 x_14 * x_31 + 17.5 x_14 * x_32 - 2.5 x_14 * x_33 + 3.0 x_14 * x_34 - 15.5 x_14 * x_35 + 5.0 x_14 * x_36 + 12.0 x_14 * x_38 - 10.5 x_14 * x_39 + 3.5 x_14 * x_40 - 19.5 x_15 * x_1 - 17.5 x_15 * x_2 - 21.5 x_15 * x_3 + 13.0 x_15 * x_4 - 22.5 x_15 * x_5 - 11.0 x_15 * x_6 - 20.5 x_15 * x_7 + 10.5 x_15 * x_9 + 15.5 x_15 * x_10 - 9.5 x_15 * x_11 - 3.5 x_15 * x_12 - 13.5 x_15 * x_14 + 21.0 x_15 * x_15 + 8.5 x_15 * x_16 + 10.5 x_15 * x_18 + 17.5 x_15 * x_20 + 9.5 x_15 * x_21 - 7.5 x_15 * x_22 + 10.5 x_15 * x_24 - 22.0 x_15 * x_25 - 9.5 x_15 * x_27 - 9.5 x_15 * x_28 + 16.0 x_15 * x_29 + 24.0 x_15 * x_30 + 10.5 x_15 * x_31 - 24.5 x_15 * x_32 - 22.0 x_15 * x_33 - 4.0 x_15 * x_34 - 4.5 x_15 * x_35 + 17.5 x_15 * x_36 - 0.5 x_15 * x_37 + 18.5 x_15 * x_38 - 1.5 x_15 * x_39 - 5.5 x_15 * x_40 + 12.5 x_16 * x_1 + 23.0 x_16 * x_3 - 15.0 x_16 * x_4 - 18.5 x_16 * x_5 + 17.5 x_16 * x_6 + 14.5 x_16 * x_8 + 0.5 x_16 * x_10 - 8.0 x_16 * x_11 + 17.5 x_16 * x_12 + 15.0 x_16 * x_13 + 8.5 x_16 * x_15 + 6.5 x_16 * x_16 - 17.0 x_16 * x_17 - 6.5 x_16 * x_18 - 19.5 x_16 * x_19 + 5.0 x_16 * x_20 - 2.5 x_16 * x_21 + 20.5 x_16 * x_23 + 24.5 x_16 * x_25 + 5.0 x_16 * x_26 - 18.0 x_16 * x_27 + 10.5 x_16 * x_28 - 12.5 x_16 * x_30 + 21.5 x_16 * x_31 + 15.0 x_16 * x_32 + 16.5 x_16 * x_33 - 19.5 x_16 * x_34 + 22.5 x_16 * x_35 - 19.0 x_16 * x_36 + 15.0 x_16 * x_37 + 16.5 x_16 * x_38 - 18.5 x_16 * x_39 + 7.5 x_16 * x_40 + 7.0 x_17 * x_1 - 20.0 x_17 * x_2 + 12.5 x_17 * x_3 - 9.5 x_17 * x_4 - 7.0 x_17 * x_5 - 1.5 x_17 * x_6 - 5.0 x_17 * x_7 - 14.0 x_17 * x_9 + 17.0 x_17 * x_11 - 20.0 x_17 * x_12 + 16.0 x_17 * x_14 - 17.0 x_17 * x_16 + 16.5 x_17 * x_17 + 3.0 x_17 * x_18 - 3.0 x_17 * x_19 + 7.0 x_17 * x_21 - 7.0 x_17 * x_23 - 5.0 x_17 * x_25 - 19.0 x_17 * x_27 - 5.0 x_17 * x_28 - 22.0 x_17 * x_29 + 4.0 x_17 * x_30 - 3.5 x_17 * x_31 + 6.5 x_17 * x_32 - 24.0 x_17 * x_33 + 10.0 x_17 * x_34 - 14.0 x_17 * x_35 - 3.5 x_17 * x_36 + 10.5 x_17 * x_38 - 16.5 x_17 * x_40 - 23.5 x_18 * x_1 - 15.5 x_18 * x_2 - 11.0 x_18 * x_3 - 7.5 x_18 * x_5 + 22.5 x_18 * x_6 + 3.0 x_18 * x_11 + 20.0 x_18 * x_12 - 16.0 x_18 * x_13 + 19.5 x_18 * x_14 + 10.5 x_18 * x_15 - 6.5 x_18 * x_16 + 3.0 x_18 * x_17 + 6.0 x_18 * x_18 + 22.5 x_18 * x_19 + 2.0 x_18 * x_20 + 24.5 x_18 * x_21 + 14.0 x_18 * x_23 + 17.5 x_18 * x_26 + 16.0 x_18 * x_27 + 1.0 x_18 * x_30 + 23.5 x_18 * x_32 - 13.0 x_18 * x_35 - 22.0 x_18 * x_36 - 9.0 x_18 * x_38 + 23.5 x_18 * x_39 - 9.0 x_18 * x_40 + 9.5 x_19 * x_1 + 6.0 x_19 * x_3 + 24.5 x_19 * x_4 - 20.0 x_19 * x_5 - 5.0 x_19 * x_7 - 17.0 x_19 * x_8 - 0.5 x_19 * x_9 - 8.0 x_19 * x_10 - 20.0 x_19 * x_11 - 18.5 x_19 * x_12 - 19.5 x_19 * x_16 - 3.0 x_19 * x_17 + 22.5 x_19 * x_18 - 15.0 x_19 * x_19 + 22.5 x_19 * x_20 + 0.5 x_19 * x_21 + 4.0 x_19 * x_22 + 23.5 x_19 * x_23 - 13.5 x_19 * x_24 - 14.0 x_19 * x_25 + 19.5 x_19 * x_26 - 3.0 x_19 * x_27 + 10.5 x_19 * x_29 + 24.5 x_19 * x_30 - 8.5 x_19 * x_31 - 24.5 x_19 * x_32 - 1.0 x_19 * x_33 + 17.0 x_19 * x_35 - 17.5 x_19 * x_36 + 16.0 x_19 * x_37 - 22.0 x_19 * x_39 + 15.0 x_19 * x_40 + 24.5 x_20 * x_1 - 10.0 x_20 * x_2 - 17.5 x_20 * x_3 - 20.5 x_20 * x_4 + 8.5 x_20 * x_5 + 8.5 x_20 * x_6 + 7.0 x_20 * x_7 + 15.5 x_20 * x_8 + 7.0 x_20 * x_9 + 3.5 x_20 * x_10 + 5.5 x_20 * x_11 + 21.5 x_20 * x_12 - 20.5 x_20 * x_13 + 16.5 x_20 * x_14 + 17.5 x_20 * x_15 + 5.0 x_20 * x_16 + 2.0 x_20 * x_18 + 22.5 x_20 * x_19 - 21.0 x_20 * x_20 + 5.5 x_20 * x_21 - 8.5 x_20 * x_22 + 5.5 x_20 * x_23 - 0.5 x_20 * x_24 + 4.0 x_20 * x_25 + 6.0 x_20 * x_26 + 2.0 x_20 * x_27 - 19.0 x_20 * x_28 + 6.0 x_20 * x_30 + 8.5 x_20 * x_33 + 5.0 x_20 * x_34 - 11.5 x_20 * x_36 - 22.5 x_20 * x_37 + 1.5 x_20 * x_38 - 24.5 x_20 * x_39 + 8.0 x_20 * x_40 - 11.5 x_21 * x_1 - 17.5 x_21 * x_3 - 19.0 x_21 * x_4 + 23.5 x_21 * x_6 + 16.5 x_21 * x_7 + 18.5 x_21 * x_8 - 4.5 x_21 * x_9 - 15.0 x_21 * x_11 + 1.5 x_21 * x_13 + 17.5 x_21 * x_14 + 9.5 x_21 * x_15 - 2.5 x_21 * x_16 + 7.0 x_21 * x_17 + 24.5 x_21 * x_18 + 0.5 x_21 * x_19 + 5.5 x_21 * x_20 + 19.5 x_21 * x_22 - 18.5 x_21 * x_24 - 20.5 x_21 * x_26 + 3.5 x_21 * x_27 - 17.0 x_21 * x_28 - 14.0 x_21 * x_29 - 20.0 x_21 * x_30 - 19.5 x_21 * x_31 - 9.5 x_21 * x_32 - 22.0 x_21 * x_34 + 11.0 x_21 * x_36 + 8.5 x_21 * x_37 + 13.0 x_21 * x_38 - 6.0 x_21 * x_39 - 16.0 x_21 * x_40 + 3.5 x_22 * x_1 - 5.5 x_22 * x_2 - 13.0 x_22 * x_3 + 23.5 x_22 * x_5 - 5.5 x_22 * x_6 - 17.0 x_22 * x_7 + 24.5 x_22 * x_8 - 22.0 x_22 * x_9 - 14.5 x_22 * x_10 + 23.5 x_22 * x_11 + 21.5 x_22 * x_12 - 18.5 x_22 * x_13 + 13.0 x_22 * x_14 - 7.5 x_22 * x_15 + 4.0 x_22 * x_19 - 8.5 x_22 * x_20 + 19.5 x_22 * x_21 + 3.5 x_22 * x_22 - 2.5 x_22 * x_23 + 9.0 x_22 * x_24 - 4.0 x_22 * x_25 + 12.5 x_22 * x_26 + 11.5 x_22 * x_28 - 9.5 x_22 * x_29 - 13.0 x_22 * x_31 - 6.5 x_22 * x_33 - 15.0 x_22 * x_34 + 8.5 x_22 * x_36 - 2.0 x_22 * x_37 - 18.5 x_22 * x_38 - 24.0 x_22 * x_39 + 6.5 x_23 * x_1 + 20.0 x_23 * x_2 - 21.5 x_23 * x_3 - 8.0 x_23 * x_4 - 19.0 x_23 * x_5 + 8.5 x_23 * x_6 + 1.5 x_23 * x_7 - 5.5 x_23 * x_8 + 8.5 x_23 * x_9 + 19.5 x_23 * x_10 - 13.0 x_23 * x_12 + 20.5 x_23 * x_16 - 7.0 x_23 * x_17 + 14.0 x_23 * x_18 + 23.5 x_23 * x_19 + 5.5 x_23 * x_20 - 2.5 x_23 * x_22 + 8.5 x_23 * x_23 - 20.0 x_23 * x_24 + 3.0 x_23 * x_25 - 23.0 x_23 * x_26 + 20.5 x_23 * x_28 + 6.5 x_23 * x_29 + 18.0 x_23 * x_30 + 19.0 x_23 * x_31 - 8.0 x_23 * x_32 - 22.5 x_23 * x_33 + 10.5 x_23 * x_34 + 22.0 x_23 * x_35 - 15.0 x_23 * x_37 + 4.5 x_23 * x_40 - 5.5 x_24 * x_1 + 4.0 x_24 * x_2 + 4.0 x_24 * x_3 + 3.0 x_24 * x_4 - 20.5 x_24 * x_5 - 8.5 x_24 * x_7 - 6.0 x_24 * x_8 + 3.0 x_24 * x_9 - 24.5 x_24 * x_10 + 8.5 x_24 * x_11 - 17.0 x_24 * x_12 - 3.5 x_24 * x_13 - 10.0 x_24 * x_14 + 10.5 x_24 * x_15 - 13.5 x_24 * x_19 - 0.5 x_24 * x_20 - 18.5 x_24 * x_21 + 9.0 x_24 * x_22 - 20.0 x_24 * x_23 + 2.0 x_24 * x_24 + 7.0 x_24 * x_26 - 20.0 x_24 * x_27 - 0.5 x_24 * x_28 + 4.0 x_24 * x_29 + 15.0 x_24 * x_30 + 24.5 x_24 * x_31 - 16.0 x_24 * x_32 - 1.0 x_24 * x_33 + 13.5 x_24 * x_34 + 14.0 x_24 * x_35 - 13.5 x_24 * x_36 - 4.5 x_24 * x_37 + 9.0 x_24 * x_39 - 14.0 x_24 * x_40 - 18.0 x_25 * x_1 + 0.5 x_25 * x_2 + 15.5 x_25 * x_3 + 0.5 x_25 * x_4 + 13.5 x_25 * x_5 + 14.0 x_25 * x_6 - 4.0 x_25 * x_8 - 18.0 x_25 * x_10 + 8.5 x_25 * x_11 + 8.5 x_25 * x_12 + 1.5 x_25 * x_14 - 22.0 x_25 * x_15 + 24.5 x_25 * x_16 - 5.0 x_25 * x_17 - 14.0 x_25 * x_19 + 4.0 x_25 * x_20 - 4.0 x_25 * x_22 + 3.0 x_25 * x_23 - 9.5 x_25 * x_25 - 19.0 x_25 * x_26 + 8.0 x_25 * x_27 - 14.0 x_25 * x_28 - 9.5 x_25 * x_29 + 3.0 x_25 * x_30 - 5.0 x_25 * x_31 - 11.0 x_25 * x_33 + 1.0 x_25 * x_34 + 6.5 x_25 * x_36 + 23.5 x_25 * x_37 + 13.5 x_25 * x_39 + 2.0 x_25 * x_40 - 13.0 x_26 * x_1 - 7.0 x_26 * x_2 - 3.5 x_26 * x_4 + 8.5 x_26 * x_5 - 8.0 x_26 * x_6 + 10.5 x_26 * x_7 - 22.0 x_26 * x_8 + 10.0 x_26 * x_9 + 18.5 x_26 * x_10 + 21.5 x_26 * x_11 + 9.5 x_26 * x_13 - 13.0 x_26 * x_14 + 5.0 x_26 * x_16 + 17.5 x_26 * x_18 + 19.5 x_26 * x_19 + 6.0 x_26 * x_20 - 20.5 x_26 * x_21 + 12.5 x_26 * x_22 - 23.0 x_26 * x_23 + 7.0 x_26 * x_24 - 19.0 x_26 * x_25 - 6.5 x_26 * x_26 - 22.0 x_26 * x_27 + 13.0 x_26 * x_28 + 10.5 x_26 * x_29 + 3.0 x_26 * x_30 + 4.5 x_26 * x_31 + 1.0 x_26 * x_32 - 19.5 x_26 * x_33 - 1.0 x_26 * x_34 + 8.5 x_26 * x_35 + 24.0 x_26 * x_36 - 11.5 x_26 * x_37 - 9.0 x_26 * x_39 - 15.5 x_26 * x_40 + 10.5 x_27 * x_1 - 3.5 x_27 * x_2 - 16.5 x_27 * x_3 - 5.0 x_27 * x_4 + 6.5 x_27 * x_5 - 21.0 x_27 * x_6 + 24.0 x_27 * x_7 + 22.0 x_27 * x_8 - 19.0 x_27 * x_9 + 7.0 x_27 * x_10 - 13.5 x_27 * x_11 - 3.0 x_27 * x_12 - 7.0 x_27 * x_13 - 9.5 x_27 * x_15 - 18.0 x_27 * x_16 - 19.0 x_27 * x_17 + 16.0 x_27 * x_18 - 3.0 x_27 * x_19 + 2.0 x_27 * x_20 + 3.5 x_27 * x_21 - 20.0 x_27 * x_24 + 8.0 x_27 * x_25 - 22.0 x_27 * x_26 - 21.0 x_27 * x_27 + 3.0 x_27 * x_28 + 5.5 x_27 * x_29 - 10.5 x_27 * x_30 + 19.5 x_27 * x_31 + 4.0 x_27 * x_33 - 13.5 x_27 * x_34 + 19.0 x_27 * x_37 + 3.5 x_27 * x_38 - 21.5 x_27 * x_39 - 17.5 x_27 * x_40 - 2.5 x_28 * x_2 + 14.5 x_28 * x_4 + 7.5 x_28 * x_5 + 1.0 x_28 * x_6 - 22.0 x_28 * x_7 + 13.5 x_28 * x_8 + 19.0 x_28 * x_9 - 1.0 x_28 * x_10 - 17.5 x_28 * x_11 + 8.5 x_28 * x_12 + 6.5 x_28 * x_13 - 9.5 x_28 * x_15 + 10.5 x_28 * x_16 - 5.0 x_28 * x_17 - 19.0 x_28 * x_20 - 17.0 x_28 * x_21 + 11.5 x_28 * x_22 + 20.5 x_28 * x_23 - 0.5 x_28 * x_24 - 14.0 x_28 * x_25 + 13.0 x_28 * x_26 + 3.0 x_28 * x_27 + 4.0 x_28 * x_28 + 8.0 x_28 * x_29 - 5.0 x_28 * x_30 - 18.5 x_28 * x_32 + 6.0 x_28 * x_33 - 4.5 x_28 * x_34 - 16.0 x_28 * x_35 + 11.5 x_28 * x_37 + 7.5 x_28 * x_39 + 5.5 x_28 * x_40 - 20.5 x_29 * x_1 + 12.5 x_29 * x_2 - 7.5 x_29 * x_3 - 16.0 x_29 * x_4 + 12.0 x_29 * x_6 - 12.0 x_29 * x_7 + 12.0 x_29 * x_9 + 2.0 x_29 * x_11 + 21.0 x_29 * x_13 + 16.0 x_29 * x_15 - 22.0 x_29 * x_17 + 10.5 x_29 * x_19 - 14.0 x_29 * x_21 - 9.5 x_29 * x_22 + 6.5 x_29 * x_23 + 4.0 x_29 * x_24 - 9.5 x_29 * x_25 + 10.5 x_29 * x_26 + 5.5 x_29 * x_27 + 8.0 x_29 * x_28 + 24.0 x_29 * x_29 + 22.0 x_29 * x_30 - 17.0 x_29 * x_32 + 8.5 x_29 * x_33 - 12.5 x_29 * x_34 + 14.0 x_29 * x_35 - 6.0 x_29 * x_36 - 20.0 x_29 * x_37 + 21.5 x_29 * x_38 + 4.5 x_29 * x_40 - 22.0 x_30 * x_1 + 19.0 x_30 * x_2 - 4.0 x_30 * x_3 - 1.0 x_30 * x_4 - 18.5 x_30 * x_5 + 21.5 x_30 * x_6 + 5.0 x_30 * x_7 - 2.5 x_30 * x_9 + 20.0 x_30 * x_10 + 13.5 x_30 * x_12 - 11.0 x_30 * x_13 + 11.0 x_30 * x_14 + 24.0 x_30 * x_15 - 12.5 x_30 * x_16 + 4.0 x_30 * x_17 + 1.0 x_30 * x_18 + 24.5 x_30 * x_19 + 6.0 x_30 * x_20 - 20.0 x_30 * x_21 + 18.0 x_30 * x_23 + 15.0 x_30 * x_24 + 3.0 x_30 * x_25 + 3.0 x_30 * x_26 - 10.5 x_30 * x_27 - 5.0 x_30 * x_28 + 22.0 x_30 * x_29 + 13.0 x_30 * x_30 + 17.0 x_30 * x_31 - 22.0 x_30 * x_35 - 14.5 x_30 * x_36 - 7.0 x_30 * x_37 - 18.5 x_30 * x_38 + 3.0 x_30 * x_39 - 6.5 x_30 * x_40 + 6.5 x_31 * x_1 + 12.5 x_31 * x_2 + 1.0 x_31 * x_3 - 7.5 x_31 * x_4 + 10.0 x_31 * x_5 - 4.0 x_31 * x_6 + 10.0 x_31 * x_7 - 5.5 x_31 * x_8 - 11.0 x_31 * x_9 - 7.5 x_31 * x_10 + 19.0 x_31 * x_11 - 16.5 x_31 * x_13 - 18.0 x_31 * x_14 + 10.5 x_31 * x_15 + 21.5 x_31 * x_16 - 3.5 x_31 * x_17 - 8.5 x_31 * x_19 - 19.5 x_31 * x_21 - 13.0 x_31 * x_22 + 19.0 x_31 * x_23 + 24.5 x_31 * x_24 - 5.0 x_31 * x_25 + 4.5 x_31 * x_26 + 19.5 x_31 * x_27 + 17.0 x_31 * x_30 - 21.5 x_31 * x_31 + 23.0 x_31 * x_32 - 22.5 x_31 * x_33 - 3.0 x_31 * x_34 + 15.0 x_31 * x_36 - 20.5 x_31 * x_39 + 16.0 x_31 * x_40 + 13.0 x_32 * x_1 - 22.0 x_32 * x_2 + 17.5 x_32 * x_6 - 11.0 x_32 * x_7 + 1.0 x_32 * x_8 + 23.5 x_32 * x_9 - 22.5 x_32 * x_10 + 2.5 x_32 * x_11 + 3.0 x_32 * x_12 + 8.0 x_32 * x_13 + 17.5 x_32 * x_14 - 24.5 x_32 * x_15 + 15.0 x_32 * x_16 + 6.5 x_32 * x_17 + 23.5 x_32 * x_18 - 24.5 x_32 * x_19 - 9.5 x_32 * x_21 - 8.0 x_32 * x_23 - 16.0 x_32 * x_24 + 1.0 x_32 * x_26 - 18.5 x_32 * x_28 - 17.0 x_32 * x_29 + 23.0 x_32 * x_31 - 7.5 x_32 * x_32 - 19.0 x_32 * x_33 + 2.5 x_32 * x_34 - 2.0 x_32 * x_37 + 11.0 x_32 * x_38 + 23.5 x_32 * x_39 - 20.0 x_32 * x_40 - 6.5 x_33 * x_1 - 6.0 x_33 * x_3 - 10.0 x_33 * x_4 - 16.5 x_33 * x_6 + 14.0 x_33 * x_7 - 24.5 x_33 * x_8 - 23.5 x_33 * x_9 - 24.5 x_33 * x_10 + 8.0 x_33 * x_11 + 20.0 x_33 * x_12 + 9.5 x_33 * x_13 - 2.5 x_33 * x_14 - 22.0 x_33 * x_15 + 16.5 x_33 * x_16 - 24.0 x_33 * x_17 - 1.0 x_33 * x_19 + 8.5 x_33 * x_20 - 6.5 x_33 * x_22 - 22.5 x_33 * x_23 - 1.0 x_33 * x_24 - 11.0 x_33 * x_25 - 19.5 x_33 * x_26 + 4.0 x_33 * x_27 + 6.0 x_33 * x_28 + 8.5 x_33 * x_29 - 22.5 x_33 * x_31 - 19.0 x_33 * x_32 + 7.5 x_33 * x_33 + 24.0 x_33 * x_34 - 14.5 x_33 * x_35 + 18.0 x_33 * x_36 - 16.0 x_33 * x_37 + 15.5 x_33 * x_38 - 4.5 x_33 * x_39 - 3.0 x_33 * x_40 + 13.5 x_34 * x_2 + 17.0 x_34 * x_3 + 7.5 x_34 * x_4 + 0.5 x_34 * x_6 - 11.5 x_34 * x_7 - 4.5 x_34 * x_8 + 2.5 x_34 * x_9 - 20.0 x_34 * x_10 - 2.0 x_34 * x_11 + 22.5 x_34 * x_12 + 16.5 x_34 * x_13 + 3.0 x_34 * x_14 - 4.0 x_34 * x_15 - 19.5 x_34 * x_16 + 10.0 x_34 * x_17 + 5.0 x_34 * x_20 - 22.0 x_34 * x_21 - 15.0 x_34 * x_22 + 10.5 x_34 * x_23 + 13.5 x_34 * x_24 + 1.0 x_34 * x_25 - 1.0 x_34 * x_26 - 13.5 x_34 * x_27 - 4.5 x_34 * x_28 - 12.5 x_34 * x_29 - 3.0 x_34 * x_31 + 2.5 x_34 * x_32 + 24.0 x_34 * x_33 + 23.0 x_34 * x_35 - 20.0 x_34 * x_36 - 16.5 x_34 * x_37 + 10.0 x_34 * x_38 - 1.5 x_34 * x_39 + 22.5 x_35 * x_2 + 1.0 x_35 * x_3 + 17.0 x_35 * x_4 - 22.5 x_35 * x_6 + 4.5 x_35 * x_7 - 8.5 x_35 * x_9 - 22.5 x_35 * x_11 - 4.0 x_35 * x_13 - 15.5 x_35 * x_14 - 4.5 x_35 * x_15 + 22.5 x_35 * x_16 - 14.0 x_35 * x_17 - 13.0 x_35 * x_18 + 17.0 x_35 * x_19 + 22.0 x_35 * x_23 + 14.0 x_35 * x_24 + 8.5 x_35 * x_26 - 16.0 x_35 * x_28 + 14.0 x_35 * x_29 - 22.0 x_35 * x_30 - 14.5 x_35 * x_33 + 23.0 x_35 * x_34 - 5.0 x_35 * x_36 - 5.0 x_35 * x_38 - 21.0 x_35 * x_39 + 5.5 x_36 * x_1 - 5.5 x_36 * x_4 + 0.5 x_36 * x_5 - 19.0 x_36 * x_8 - 24.0 x_36 * x_9 - 6.0 x_36 * x_10 - 17.5 x_36 * x_11 + 21.0 x_36 * x_12 - 3.0 x_36 * x_13 + 5.0 x_36 * x_14 + 17.5 x_36 * x_15 - 19.0 x_36 * x_16 - 3.5 x_36 * x_17 - 22.0 x_36 * x_18 - 17.5 x_36 * x_19 - 11.5 x_36 * x_20 + 11.0 x_36 * x_21 + 8.5 x_36 * x_22 - 13.5 x_36 * x_24 + 6.5 x_36 * x_25 + 24.0 x_36 * x_26 - 6.0 x_36 * x_29 - 14.5 x_36 * x_30 + 15.0 x_36 * x_31 + 18.0 x_36 * x_33 - 20.0 x_36 * x_34 - 5.0 x_36 * x_35 + 2.5 x_36 * x_37 - 21.0 x_36 * x_40 - 22.5 x_37 * x_1 + 17.0 x_37 * x_2 - 6.5 x_37 * x_3 + 2.0 x_37 * x_4 - 24.0 x_37 * x_5 + 11.0 x_37 * x_6 + 5.0 x_37 * x_8 + 8.0 x_37 * x_10 + 1.5 x_37 * x_11 - 7.5 x_37 * x_13 - 0.5 x_37 * x_15 + 15.0 x_37 * x_16 + 16.0 x_37 * x_19 - 22.5 x_37 * x_20 + 8.5 x_37 * x_21 - 2.0 x_37 * x_22 - 15.0 x_37 * x_23 - 4.5 x_37 * x_24 + 23.5 x_37 * x_25 - 11.5 x_37 * x_26 + 19.0 x_37 * x_27 + 11.5 x_37 * x_28 - 20.0 x_37 * x_29 - 7.0 x_37 * x_30 - 2.0 x_37 * x_32 - 16.0 x_37 * x_33 - 16.5 x_37 * x_34 + 2.5 x_37 * x_36 - 14.5 x_37 * x_37 + 16.0 x_37 * x_38 - 19.5 x_37 * x_40 + 10.0 x_38 * x_1 - 17.5 x_38 * x_3 + 7.0 x_38 * x_5 + 4.5 x_38 * x_6 - 19.5 x_38 * x_7 + 18.5 x_38 * x_8 - 20.0 x_38 * x_9 + 4.0 x_38 * x_10 + 17.0 x_38 * x_11 + 24.5 x_38 * x_12 + 5.0 x_38 * x_13 + 12.0 x_38 * x_14 + 18.5 x_38 * x_15 + 16.5 x_38 * x_16 + 10.5 x_38 * x_17 - 9.0 x_38 * x_18 + 1.5 x_38 * x_20 + 13.0 x_38 * x_21 - 18.5 x_38 * x_22 + 3.5 x_38 * x_27 + 21.5 x_38 * x_29 - 18.5 x_38 * x_30 + 11.0 x_38 * x_32 + 15.5 x_38 * x_33 + 10.0 x_38 * x_34 - 5.0 x_38 * x_35 + 16.0 x_38 * x_37 + 15.0 x_38 * x_38 - 13.5 x_38 * x_39 - 16.0 x_38 * x_40 + 24.5 x_39 * x_1 + 2.5 x_39 * x_3 + 6.5 x_39 * x_4 + 22.5 x_39 * x_5 + 24.0 x_39 * x_6 + 18.5 x_39 * x_7 - 12.5 x_39 * x_8 - 19.0 x_39 * x_9 + 5.0 x_39 * x_10 - 10.5 x_39 * x_11 + 11.5 x_39 * x_12 - 5.0 x_39 * x_13 - 10.5 x_39 * x_14 - 1.5 x_39 * x_15 - 18.5 x_39 * x_16 + 23.5 x_39 * x_18 - 22.0 x_39 * x_19 - 24.5 x_39 * x_20 - 6.0 x_39 * x_21 - 24.0 x_39 * x_22 + 9.0 x_39 * x_24 + 13.5 x_39 * x_25 - 9.0 x_39 * x_26 - 21.5 x_39 * x_27 + 7.5 x_39 * x_28 + 3.0 x_39 * x_30 - 20.5 x_39 * x_31 + 23.5 x_39 * x_32 - 4.5 x_39 * x_33 - 1.5 x_39 * x_34 - 21.0 x_39 * x_35 - 13.5 x_39 * x_38 - 14.0 x_39 * x_39 - 17.0 x_39 * x_40 + 4.0 x_40 * x_1 + 17.5 x_40 * x_2 - 1.5 x_40 * x_3 + 10.0 x_40 * x_4 - 17.5 x_40 * x_5 - 20.5 x_40 * x_8 - 3.0 x_40 * x_9 + 10.0 x_40 * x_10 + 8.0 x_40 * x_11 + 21.0 x_40 * x_12 + 3.5 x_40 * x_14 - 5.5 x_40 * x_15 + 7.5 x_40 * x_16 - 16.5 x_40 * x_17 - 9.0 x_40 * x_18 + 15.0 x_40 * x_19 + 8.0 x_40 * x_20 - 16.0 x_40 * x_21 + 4.5 x_40 * x_23 - 14.0 x_40 * x_24 + 2.0 x_40 * x_25 - 15.5 x_40 * x_26 - 17.5 x_40 * x_27 + 5.5 x_40 * x_28 + 4.5 x_40 * x_29 - 6.5 x_40 * x_30 + 16.0 x_40 * x_31 - 20.0 x_40 * x_32 - 3.0 x_40 * x_33 - 21.0 x_40 * x_36 - 19.5 x_40 * x_37 - 16.0 x_40 * x_38 - 17.0 x_40 * x_39 + 19.0 x_40 * x_40 ] - 13.0 x_1 + 27.0 x_2 + 12.0 x_3 + 17.0 x_4 - 25.0 x_5 + 33.0 x_6 - 16.0 x_7 + 11.0 x_8 - 31.0 x_9 - 36.0 x_10 + 0.0 x_11 + 0.0 x_12 + 0.0 x_13 + 17.0 x_14 + 11.0 x_15 + 0.0 x_16 - 35.0 x_17 + 6.0 x_18 + 12.0 x_19 + 20.0 x_20 + 12.0 x_21 - 27.0 x_22 + 29.0 x_23 + 0.0 x_24 - 20.0 x_25 - 7.0 x_26 - 6.0 x_27 - 16.0 x_28 - 16.0 x_29 + 34.0 x_30 - 33.0 x_31 - 29.0 x_32 + 0.0 x_33 - 11.0 x_34 + 29.0 x_35 + 43.0 x_36 + 38.0 x_37 + 0.0 x_38 + 34.0 x_39 + 0.0 x_40

Subject To

Bounds
 x_1 <= 1.0
 x_2 <= 1.0
 x_3 <= 1.0
 x_4 <= 1.0
 x_5 <= 1.0
 x_6 <= 1.0
 x_7 <= 1.0
 x_8 <= 1.0
 x_9 <= 1.0
 x_10 <= 1.0
 x_11 <= 1.0
 x_12 <= 1.0
 x_13 <= 1.0
 x_14 <= 1.0
 x_15 <= 1.0
 x_16 <= 1.0
 x_17 <= 1.0
 x_18 <= 1.0
 x_19 <= 1.0
 x_20 <= 1.0
 x_21 <= 1.0
 x_22 <= 1.0
 x_23 <= 1.0
 x_24 <= 1.0
 x_25 <= 1.0
 x_26 <= 1.0
 x_27 <= 1.0
 x_28 <= 1.0
 x_29 <= 1.0
 x_30 <= 1.0
 x_31 <= 1.0
 x_32 <= 1.0
 x_33 <= 1.0
 x_34 <= 1.0
 x_35 <= 1.0
 x_36 <= 1.0
 x_37 <= 1.0
 x_38 <= 1.0
 x_39 <= 1.0
 x_40 <= 1.0

End